100
3493
60 55
62 109
81 153
47 21
47 126
76 87
92 190
45 32
99 58
48 22
53 14
18 63
63 194
39 41
45 92
38 59
71 165
66 106
81 155
29 37
75 51
60 82
21 185
11 163
38 38
78 194
25 130
68 79
48 83
69 135
100 14
73 122
84 71
13 91
53 186
1 97
57 191
83 74
98 22
24 11
67 199
15 167
36 176
53 34
90 46
37 146
97 30
30 23
38 164
79 152
28 167
56 101
55 69
81 198
39 96
9 15
33 24
7 150
5 183
30 55
57 129
32 88
21 165
50 88
53 134
41 72
85 154
78 135
36 99
14 132
67 93
15 128
13 57
60 83
58 92
16 140
82 100
12 47
85 166
9 115
12 112
44 73
88 142
79 123
68 92
30 100
14 186
11 147
48 152
50 68
81 33
62 51
81 180
43 170
31 182
97 198
6 146
35 93
17 174
86 76
